NAME          DCAP_3_4_2_200_SS193
ROWS
 N  OBJ
 L  CON1
 L  CON2
 L  CON3
 L  CON4
 L  CON5
 L  CON6
 L  CON7
 L  CON8
 L  CON9
 L  CON10
 L  CON11
 L  CON12
 E  CON13
 E  CON14
 E  CON15
 E  CON16
 E  CON17
 E  CON18
 E  CON19
 E  CON20
COLUMNS
    x[1,1]    OBJ       6.180167      CON1      1.000000    
    x[1,1]    CON7      -1.000000     CON8      -1.000000   
    x[1,2]    OBJ       5.039546      CON2      1.000000    
    x[1,2]    CON8      -1.000000   
    x[2,1]    OBJ       6.732585      CON3      1.000000    
    x[2,1]    CON9      -1.000000     CON10     -1.000000   
    x[2,2]    OBJ       7.443064      CON4      1.000000    
    x[2,2]    CON10     -1.000000   
    x[3,1]    OBJ       6.563535      CON5      1.000000    
    x[3,1]    CON11     -1.000000     CON12     -1.000000   
    x[3,2]    OBJ       6.054841      CON6      1.000000    
    x[3,2]    CON12     -1.000000   
    MARKER    'MARKER'                'INTORG'
    u[1,1]    OBJ       48.076654     CON1      -1.000000   
    u[1,2]    OBJ       49.466655     CON2      -1.000000   
    u[2,1]    OBJ       49.996186     CON3      -1.000000   
    u[2,2]    OBJ       32.230043     CON4      -1.000000   
    u[3,1]    OBJ       20.066487     CON5      -1.000000   
    u[3,2]    OBJ       27.484319     CON6      -1.000000   
    y[1,1,1]  OBJ       9.028964      CON7      0.845065    
    y[1,1,1]  CON13     1.000000    
    y[1,1,2]  OBJ       8.305806      CON8      1.108570    
    y[1,1,2]  CON14     1.000000    
    y[1,2,1]  OBJ       5.625346      CON7      0.656500    
    y[1,2,1]  CON15     1.000000    
    y[1,2,2]  OBJ       9.192481      CON8      1.057165    
    y[1,2,2]  CON16     1.000000    
    y[1,3,1]  OBJ       8.188318      CON7      0.761088    
    y[1,3,1]  CON17     1.000000    
    y[1,3,2]  OBJ       7.308245      CON8      0.574645    
    y[1,3,2]  CON18     1.000000    
    y[1,4,1]  OBJ       6.721547      CON7      0.634619    
    y[1,4,1]  CON19     1.000000    
    y[1,4,2]  OBJ       9.433374      CON8      1.169530    
    y[1,4,2]  CON20     1.000000    
    y[2,1,1]  OBJ       5.845379      CON9      0.845065    
    y[2,1,1]  CON13     1.000000    
    y[2,1,2]  OBJ       9.621130      CON10     1.108570    
    y[2,1,2]  CON14     1.000000    
    y[2,2,1]  OBJ       6.192700      CON9      0.656500    
    y[2,2,1]  CON15     1.000000    
    y[2,2,2]  OBJ       9.893972      CON10     1.057165    
    y[2,2,2]  CON16     1.000000    
    y[2,3,1]  OBJ       9.418681      CON9      0.761088    
    y[2,3,1]  CON17     1.000000    
    y[2,3,2]  OBJ       7.167762      CON10     0.574645    
    y[2,3,2]  CON18     1.000000    
    y[2,4,1]  OBJ       6.346224      CON9      0.634619    
    y[2,4,1]  CON19     1.000000    
    y[2,4,2]  OBJ       8.429480      CON10     1.169530    
    y[2,4,2]  CON20     1.000000    
    y[3,1,1]  OBJ       6.386907      CON11     0.845065    
    y[3,1,1]  CON13     1.000000    
    y[3,1,2]  OBJ       7.400301      CON12     1.108570    
    y[3,1,2]  CON14     1.000000    
    y[3,2,1]  OBJ       9.317897      CON11     0.656500    
    y[3,2,1]  CON15     1.000000    
    y[3,2,2]  OBJ       9.723556      CON12     1.057165    
    y[3,2,2]  CON16     1.000000    
    y[3,3,1]  OBJ       9.125958      CON11     0.761088    
    y[3,3,1]  CON17     1.000000    
    y[3,3,2]  OBJ       5.862024      CON12     0.574645    
    y[3,3,2]  CON18     1.000000    
    y[3,4,1]  OBJ       5.868008      CON11     0.634619    
    y[3,4,1]  CON19     1.000000    
    y[3,4,2]  OBJ       8.609099      CON12     1.169530    
    y[3,4,2]  CON20     1.000000    
    z[1,1]    OBJ       572.085173    CON13     1.000000    
    z[1,2]    OBJ       647.064031    CON14     1.000000    
    z[2,1]    OBJ       847.739521    CON15     1.000000    
    z[2,2]    OBJ       757.464555    CON16     1.000000    
    z[3,1]    OBJ       943.481955    CON17     1.000000    
    z[3,2]    OBJ       524.569511    CON18     1.000000    
    z[4,1]    OBJ       561.074720    CON19     1.000000    
    z[4,2]    OBJ       987.568126    CON20     1.000000    
    MARKER    'MARKER'                 'INTEND'
RHS
    RHS       CON1      -0.000000     CON2      -0.000000   
    RHS       CON3      -0.000000     CON4      -0.000000   
    RHS       CON5      -0.000000     CON6      -0.000000   
    RHS       CON7      -0.000000     CON8      -0.000000   
    RHS       CON9      -0.000000     CON10     -0.000000   
    RHS       CON11     -0.000000     CON12     -0.000000   
    RHS       CON13     1.000000      CON14     1.000000    
    RHS       CON15     1.000000      CON16     1.000000    
    RHS       CON17     1.000000      CON18     1.000000    
    RHS       CON19     1.000000      CON20     1.000000    
BOUNDS
 BV BOUND     u[1,1]  
 BV BOUND     u[1,2]  
 BV BOUND     u[2,1]  
 BV BOUND     u[2,2]  
 BV BOUND     u[3,1]  
 BV BOUND     u[3,2]  
 BV BOUND     y[1,1,1]
 BV BOUND     y[1,1,2]
 BV BOUND     y[1,2,1]
 BV BOUND     y[1,2,2]
 BV BOUND     y[1,3,1]
 BV BOUND     y[1,3,2]
 BV BOUND     y[1,4,1]
 BV BOUND     y[1,4,2]
 BV BOUND     y[2,1,1]
 BV BOUND     y[2,1,2]
 BV BOUND     y[2,2,1]
 BV BOUND     y[2,2,2]
 BV BOUND     y[2,3,1]
 BV BOUND     y[2,3,2]
 BV BOUND     y[2,4,1]
 BV BOUND     y[2,4,2]
 BV BOUND     y[3,1,1]
 BV BOUND     y[3,1,2]
 BV BOUND     y[3,2,1]
 BV BOUND     y[3,2,2]
 BV BOUND     y[3,3,1]
 BV BOUND     y[3,3,2]
 BV BOUND     y[3,4,1]
 BV BOUND     y[3,4,2]
 BV BOUND     z[1,1]  
 BV BOUND     z[1,2]  
 BV BOUND     z[2,1]  
 BV BOUND     z[2,2]  
 BV BOUND     z[3,1]  
 BV BOUND     z[3,2]  
 BV BOUND     z[4,1]  
 BV BOUND     z[4,2]  
ENDATA
